row=10;
column=10;
Board=[|0,0,0,0,0,1,0,0,0,0|0,0,0,0,0,0,0,0,2,0|0,0,0,0,0,0,0,0,0,0|2,0,0,0,0,0,0,0,0,0|6,0,0,0,6,5,0,0,0,0|0,0,0,0,0,0,0,0,0,0|0,0,0,0,0,6,0,0,0,0|0,0,0,0,0,0,0,0,0,0|0,0,0,0,0,0,0,0,0,0|0,0,0,0,0,0,0,0,0,3|];
right = [1,1,2,1,5,1,3,0,1,5];
bottom = [3,0,0,2,4,4,1,2,2,2];
